20
10
206339
0
0
38 45 68 42 62 55 60 74 58 44
1
0
48 72 47 41 36 46 42 52 47 54
2
0
46 32 33 35 46 90 61 41 50 63
3
0
49 56 60 57 67 34 67 41 40 64
4
0
44 59 45 63 52 34 45 45 56 56
5
0
39 41 48 36 49 37 44 49 54 54
6
0
36 50 51 52 63 66 59 60 31 38
7
0
55 67 56 44 53 52 55 42 48 51
8
0
64 50 40 28 39 51 50 49 54 52
9
0
47 47 53 59 46 52 39 38 49 54
10
0
54 42 59 80 48 59 53 56 49 51
11
0
43 49 73 46 33 45 46 45 46 51
12
0
53 52 61 46 46 32 49 58 71 57
13
0
54 21 58 36 43 44 56 53 57 36
14
0
53 58 66 55 68 42 45 36 57 37
15
0
49 52 45 39 48 58 57 46 46 53
16
0
64 46 43 53 63 56 50 48 44 54
17
0
43 48 50 47 54 54 42 51 41 49
18
0
38 40 48 47 36 81 56 48 38 51
19
0
54 43 55 66 40 60 46 45 68 45
